Solver command line: ['C:\\Program Files\\IBM\\ILOG\\CPLEX_Studio2211\\cplex\\bin\\x64_win64\\cplex.exe']


Welcome to IBM(R) ILOG(R) CPLEX(R) Interactive Optimizer 22.1.1.0
  with Simplex, Mixed Integer & Barrier Optimizers
5725-A06 5725-A29 5724-Y48 5724-Y49 5724-Y54 5724-Y55 5655-Y21
Copyright IBM Corp. 1988, 2022.  All Rights Reserved.

Type 'help' for a list of available commands.
Type 'help' followed by a command name for more
information on commands.

CPLEX> Logfile 'cplex.log' closed.
Logfile 'C:\Users\wangy\Documents\GitHub\re_optimization\result_site_specific\tmpincpel7r.cplex.log' open.
CPLEX> Problem 'C:\Users\wangy\Documents\GitHub\re_optimization\result_site_specific\tmp66ythp9d.pyomo.lp' read.
Read time = 0.30 sec. (7.98 ticks)
CPLEX> Problem name         : C:\Users\wangy\Documents\GitHub\re_optimization\result_site_specific\tmp66ythp9d.pyomo.lp
Objective sense      : Minimize
Variables            :   56997  [Nneg: 30685,  Free: 4406,  Binary: 6,
                                 Other: 21900]
Objective nonzeros   :      14
Linear constraints   :   78893  [Less: 42355,  Greater: 5,  Equal: 36533]
  Nonzeros           :  198793
  RHS nonzeros       :    3736

Variables            : Min LB: 0.000000         Max UB: 1.000000       
Objective nonzeros   : Min   : 1.000000         Max   : 1.000000       
Linear constraints   :
  Nonzeros           : Min   : 0.0001279192     Max   : 100000.0       
  RHS nonzeros       : Min   : 0.05700000       Max   : 100000.0       
CPLEX> Version identifier: 22.1.1.0 | 2022-11-27 | 9160aff4d
Tried aggregator 3 times.
MIP Presolve eliminated 45238 rows and 24795 columns.
Aggregator did 11859 substitutions.
Reduced MIP has 21796 rows, 20343 columns, and 66365 nonzeros.
Reduced MIP has 2 binaries, 0 generals, 0 SOSs, and 0 indicators.
Presolve time = 0.30 sec. (211.58 ticks)
Found incumbent of value 293243.695148 after 0.41 sec. (324.02 ticks)
Probing time = 0.00 sec. (1.13 ticks)
Tried aggregator 1 time.
Detecting symmetries...
Reduced MIP has 21796 rows, 20343 columns, and 66365 nonzeros.
Reduced MIP has 2 binaries, 0 generals, 0 SOSs, and 0 indicators.
Presolve time = 0.05 sec. (39.99 ticks)
Probing time = 0.00 sec. (1.07 ticks)
MIP emphasis: balance optimality and feasibility.
MIP search method: dynamic search.
Parallel mode: deterministic, using up to 16 threads.
Root relaxation solution time = 2.16 sec. (1128.61 ticks)

        Nodes                                         Cuts/
   Node  Left     Objective  IInf  Best Integer    Best Bound    ItCnt     Gap

*     0+    0                       293243.6951   -28470.4683           109.71%
*     0+    0                         8453.0544   -28470.4683           436.81%
      0     0     7551.6310     1     8453.0544     7551.6310     8208   10.66%
*     0+    0                         8453.0385     7551.6310            10.66%
      0     0        cutoff           8453.0385                   9372    0.00%
Elapsed time = 3.33 sec. (2314.19 ticks, tree = 0.01 MB, solutions = 3)

Root node processing (before b&c):
  Real time             =    3.34 sec. (2316.97 ticks)
Parallel b&c, 16 threads:
  Real time             =    0.00 sec. (0.00 ticks)
  Sync time (average)   =    0.00 sec.
  Wait time (average)   =    0.00 sec.
                          ------------
Total (root+branch&cut) =    3.34 sec. (2316.97 ticks)

Solution pool: 3 solutions saved.

MIP - Integer optimal solution:  Objective =  8.4530384651e+03
Solution time =    3.34 sec.  Iterations = 9372  Nodes = 0
Deterministic time = 2317.13 ticks  (692.92 ticks/sec)

CPLEX> Incumbent solution written to file 'C:\Users\wangy\Documents\GitHub\re_optimization\result_site_specific\tmp86qd205b.cplex.sol'.
CPLEX> 
